\ Model Routes
\ LP format - for model browsing. Use MPS format to capture full model detail.
Maximize
  - 191.7153353028244 R{0,0} + 623.2046552982704 R{0,1}
   + 623.2046552982704 R{0,2} - 249.2301939667805 R{0,3}
   - 17.2186063228686 R{0,4} + 1085.481438609255 R{0,5}
   + 1085.481438609255 R{0,6} + 1624.94948208513 R{0,7}
   + 960.0465889690856 R{0,8} - 256.140831891889 R{1,0}
   + 43.21984324404906 R{1,1} + 670.7075199092203 R{1,2}
   + 1198.881248318718 R{2,0} + 1198.881248318718 R{2,1}
   - 278.4443928850388 R{2,2} - 59.13410337035452 R{2,3}
   + 602.7748664658451 R{2,4} + 1100.505917706273 R{2,5}
   + 947.5724883564153 R{2,6} + 545.8218696722909 R{2,7}
   + 832.465065802254 R{2,8} + 716.1258596310515 R{2,9}
   - 260.2482995389823 R{3,0} + 522.4398281754088 R{3,1}
   + 1230.485940651614 R{3,2} + 674.7567065366272 R{3,3}
   + 1082.412703553213 R{3,4} + 997.167705710883 R{3,5}
   - 242.5208875955131 R{4,0} + 1066.379443184683 R{4,1}
   + 1576.196574514046 R{4,2} + 1243.182504172769 R{4,3}
   + 636.1946624570069 R{4,4} + 1529.283360765447 R{4,5}
   - 231.9775664337766 R{5,0} + 251.2011413408645 R{5,1}
   + 835.6653627301428 R{5,2} + 574.0156773565197 R{5,3}
   + 1496.596686318394 R{5,4} + 726.77033799638 R{5,5}
   + 856.0101843322932 R{5,6} - 231.1436095783099 R{6,0}
   + 1194.380449393887 R{6,1} + 1928.457712617132 R{6,2}
   + 2349.61274349011 R{6,3} + 1417.379571589998 R{6,4}
   + 1875.351343462743 R{6,5} + 1160.687781331301 R{6,6}
   + 575.6250716725115 R{6,7} + 2490.483485383242 R{6,8}
Subject To
 R00: R{0,0} <= 1
 R01: R{0,1} <= 1
 R02: R{0,2} <= 1
 R03: R{0,3} <= 1
 R04: R{0,4} <= 1
 R05: R{0,5} <= 1
 R06: R{0,6} <= 1
 R07: R{0,7} <= 1
 R08: R{0,8} <= 1
 R09: R{1,0} <= 1
 R010: R{1,1} <= 1
 R011: R{1,2} <= 1
 R012: R{2,0} <= 1
 R013: R{2,1} <= 1
 R014: R{2,2} <= 1
 R015: R{2,3} <= 1
 R016: R{2,4} <= 1
 R017: R{2,5} <= 1
 R018: R{2,6} <= 1
 R019: R{2,7} <= 1
 R020: R{2,8} <= 1
 R021: R{2,9} <= 1
 R022: R{3,0} <= 1
 R023: R{3,1} <= 1
 R024: R{3,2} <= 1
 R025: R{3,3} <= 1
 R026: R{3,4} <= 1
 R027: R{3,5} <= 1
 R028: R{4,0} <= 1
 R029: R{4,1} <= 1
 R030: R{4,2} <= 1
 R031: R{4,3} <= 1
 R032: R{4,4} <= 1
 R033: R{4,5} <= 1
 R034: R{5,0} <= 1
 R035: R{5,1} <= 1
 R036: R{5,2} <= 1
 R037: R{5,3} <= 1
 R038: R{5,4} <= 1
 R039: R{5,5} <= 1
 R040: R{5,6} <= 1
 R041: R{6,0} <= 1
 R042: R{6,1} <= 1
 R043: R{6,2} <= 1
 R044: R{6,3} <= 1
 R045: R{6,4} <= 1
 R046: R{6,5} <= 1
 R047: R{6,6} <= 1
 R048: R{6,7} <= 1
 R049: R{6,8} <= 1
 R1_0: R{0,0} + R{0,1} + R{0,2} + R{0,3} + R{0,4} + R{0,5} + R{0,6}
   + R{0,7} + R{0,8} <= 1
 R1_1: R{1,0} + R{1,1} + R{1,2} <= 1
 R1_2: R{2,0} + R{2,1} + R{2,2} + R{2,3} + R{2,4} + R{2,5} + R{2,6}
   + R{2,7} + R{2,8} + R{2,9} <= 1
 R1_3: R{3,0} + R{3,1} + R{3,2} + R{3,3} + R{3,4} + R{3,5} <= 1
 R1_4: R{4,0} + R{4,1} + R{4,2} + R{4,3} + R{4,4} + R{4,5} <= 1
 R1_5: R{5,0} + R{5,1} + R{5,2} + R{5,3} + R{5,4} + R{5,5} + R{5,6} <= 1
 R1_6: R{6,0} + R{6,1} + R{6,2} + R{6,3} + R{6,4} + R{6,5} + R{6,6}
   + R{6,7} + R{6,8} <= 1
 R2_0: <= 0
 R2_1: 10 R{3,1} + 10 R{3,2} + 10 R{3,3} + 10 R{3,5} <= 10
 R2_2: <= 0
 R2_3: 4 R{1,1} + 4 R{1,2} + 4 R{6,8} <= 4
 R2_4: <= 0
 R2_5: 5 R{0,4} + 5 R{0,5} + 5 R{0,6} <= 5
 R2_6: 10 R{6,1} + 10 R{6,2} + 10 R{6,3} + 10 R{6,4} + 10 R{6,5} <= 10
 R2_7: 6 R{1,1} <= 6
 R2_8: <= 0
 R2_9: 12 R{4,1} + 12 R{4,2} + 12 R{4,3} + 12 R{4,5} <= 12
 R2_10: 8 R{6,1} + 8 R{6,2} + 8 R{6,4} + 8 R{6,5} + 8 R{6,6} + 8 R{6,8}
   <= 8
 R2_11: <= 0
 R2_12: <= 0
 R2_13: <= 0
 R2_14: <= 0
 R2_15: 11 R{0,0} + 11 R{0,1} + 11 R{0,2} + 11 R{4,1} + 11 R{4,2} <= 11
 R2_16: <= 0
 R2_17: <= 0
 R2_18: <= 0
 R2_19: 11 R{0,8} + 11 R{2,9} + 11 R{4,1} + 11 R{4,2} + 11 R{4,3}
   + 11 R{4,5} + 11 R{5,4} + 11 R{6,7} + 11 R{6,8} <= 11
 R2_20: 13 R{0,7} + 13 R{0,8} + 13 R{2,5} + 13 R{3,5} + 13 R{5,3}
   + 13 R{5,5} + 13 R{5,6} + 13 R{6,7} <= 13
 R2_21: <= 0
 R2_22: <= 0
 R2_23: 14 R{0,1} + 14 R{0,2} + 14 R{2,0} + 14 R{2,1} + 14 R{2,6}
   + 14 R{2,8} + 14 R{4,5} + 14 R{6,3} <= 14
 R2_24: 10 R{3,1} + 10 R{3,2} + 10 R{5,6} <= 10
 R2_25: 13 R{4,1} + 13 R{4,2} + 13 R{4,3} + 13 R{4,5} <= 13
 R2_26: 6 R{5,1} + 6 R{5,2} + 6 R{5,3} + 6 R{5,4} + 6 R{5,5} + 6 R{5,6}
   <= 6
 R2_27: 5 R{0,5} + 5 R{0,6} + 5 R{0,7} + 5 R{0,8} + 5 R{2,9} + 5 R{3,3}
   + 5 R{3,4} + 5 R{3,5} + 5 R{6,1} + 5 R{6,2} + 5 R{6,3} + 5 R{6,4}
   + 5 R{6,6} + 5 R{6,8} <= 5
 R2_28: <= 0
 R2_29: <= 0
 R2_30: <= 0
 R2_31: <= 0
 R2_32: 7 R{5,1} + 7 R{5,2} + 7 R{5,3} + 7 R{5,4} + 7 R{5,6} <= 7
 R2_33: <= 0
 R2_34: <= 0
 R2_35: <= 0
 R2_36: <= 0
 R2_37: 5 R{3,1} + 5 R{3,2} + 5 R{3,3} + 5 R{3,4} <= 5
 R2_38: <= 0
 R2_39: <= 0
 R2_40: 15 R{2,3} + 15 R{2,4} + 15 R{2,5} <= 15
 R2_41: 5 R{3,4} + 5 R{6,4} + 5 R{6,6} <= 5
 R2_42: 4 R{2,3} + 4 R{2,4} + 4 R{2,5} + 4 R{2,9} <= 4
 R2_43: <= 0
 R2_44: <= 0
 R2_45: <= 0
 R2_46: 9 R{4,4} <= 9
 R2_47: 7 R{5,1} + 7 R{5,2} <= 7
 R2_48: 4 R{4,1} + 4 R{4,2} + 4 R{4,3} + 4 R{4,5} <= 4
 R2_49: <= 0
 R2_50: <= 0
 R2_51: 11 R{4,1} + 11 R{4,5} <= 11
 R2_52: 10 R{4,4} <= 10
 R2_53: 13 R{4,1} + 13 R{4,2} + 13 R{4,5} <= 13
 R2_54: 9 R{3,1} + 9 R{3,2} + 9 R{3,3} + 9 R{3,4} + 9 R{3,5} <= 9
 R2_55: 8 R{6,1} + 8 R{6,2} + 8 R{6,3} + 8 R{6,4} + 8 R{6,5} + 8 R{6,6}
   + 8 R{6,8} <= 8
 R2_56: 6 R{2,0} + 6 R{2,1} + 6 R{2,6} + 6 R{4,3} <= 6
 R2_57: <= 0
 R2_58: <= 0
 R2_59: <= 0
 R2_60: <= 0
 R2_61: 9 R{2,7} + 9 R{2,8} <= 9
 R2_62: <= 0
 R2_63: <= 0
 R2_64: <= 0
 R2_65: 5 R{2,0} + 5 R{2,1} + 5 R{2,7} + 5 R{6,1} + 5 R{6,2} + 5 R{6,3}
   + 5 R{6,5} + 5 R{6,8} <= 5
 R2_66: 7 R{2,9} + 7 R{6,1} + 7 R{6,2} + 7 R{6,3} + 7 R{6,4} + 7 R{6,5}
   + 7 R{6,6} + 7 R{6,8} <= 7
 R2_67: 3 R{0,1} + 3 R{0,2} + 3 R{2,0} + 3 R{2,1} + 3 R{2,6} + 3 R{2,7}
   + 3 R{2,8} + 3 R{4,4} <= 3
 R2_68: 6 R{1,1} + 6 R{1,2} <= 6
 R2_69: 7 R{4,1} + 7 R{4,2} + 7 R{4,3} + 7 R{4,5} <= 7
 R2_70: <= 11
 R2_71: 7 R{6,1} + 7 R{6,2} + 7 R{6,3} + 7 R{6,4} + 7 R{6,5} + 7 R{6,6}
   + 7 R{6,8} <= 7
 R2_72: <= 0
 R2_73: <= 0
 R2_74: 5 R{5,1} <= 5
 R2_75: 8 R{6,1} + 8 R{6,2} + 8 R{6,3} + 8 R{6,4} + 8 R{6,5} + 8 R{6,6}
   + 8 R{6,8} <= 8
 R2_76: 12 R{0,4} + 12 R{0,5} + 12 R{0,6} + 12 R{0,7} + 12 R{3,4}
   + 12 R{5,4} + 12 R{5,5} + 12 R{6,5} + 12 R{6,8} <= 12
 R2_77: 7 R{0,5} + 7 R{0,6} + 7 R{0,7} + 7 R{1,2} + 7 R{2,4} + 7 R{2,5}
   + 7 R{3,2} + 7 R{4,2} + 7 R{5,2} + 7 R{5,4} + 7 R{6,2} + 7 R{6,3}
   + 7 R{6,5} + 7 R{6,8} <= 7
Bounds
End
